(set-logic ALL)
(set-option :produce-models true)
(declare-sort BoundSet 0)
(declare-sort UnboundSet 0)
(declare-fun IsRed (BoundSet) Bool)
(declare-fun Jumps (BoundSet) Bool)
(declare-fun Catches (BoundSet BoundSet) Bool)
(declare-fun IsInMouth (BoundSet BoundSet) Bool)
(assert (not (=> (and (exists ((a BoundSet)) (exists ((c BoundSet)) (exists ((b BoundSet)) (and (IsRed a) (and (Jumps a) (and (Catches a b) (IsInMouth b c))))))) (and (forall ((f BoundSet)) (forall ((g BoundSet)) (=> (IsRed f) (Catches f g)))) (forall ((i BoundSet)) (forall ((h BoundSet)) (=> (Catches h i) (IsRed h)))))) (exists ((a BoundSet)) (exists ((d BoundSet)) (Catches a d))))))
(check-sat)
(get-model)